
%FILE DATA:	Soccer Computational Problem for MiniZinc Models	%
%AUTHOR:	Jack Wall	%
%CONTACT:  	116397063@umail.ucc.ie			%
%LAST UPDATE:	03/12/2020, 10:36:46						%
%DESCRIPTION: 	117 games played with 39 games left				%


n=13; %number of teams

%Games to play
games=[|2,8|3,6|11,2|3,12|2,11|5,2|10,5|11,1|13,1|1,4|11,10|5,6|13,12|7,6|4,6|8,7|6,9|6,8|5,12|4,10|8,13|4,5|12,7|6,2|1,8|1,13|11,9|9,13|8,11|13,5|7,1|4,7|4,11|4,9|13,9|10,6|8,5|13,11|3,1|];

%Initial points
iPoints=[22,35,23,20,23,29,26,22,30,20,17,15,27];

%POSITION CONSTRAINTS
% [|teamID, operator, position|...]
% operators index:
%  1 for =  operator
%  2 for >  operator
%  3 for >= operator
%  4 for <  operator
%  5 for <= operator
positionConstraints=[|6,3,1|13,5,2|9,3,3|2,5,4|7,2,4|];